69
0 1 64 20 45 65 38 58 68 51 
49 50 46 4 28 5 26 59 55 25 
15 57 32 34 61 33 67 7 16 35 
41 10 2 54 60 8 37 42 19 24 
43 22 44 3 23 63 6 21 30 40 
14 9 27 13 18 66 29 36 11 47 
12 48 17 62 39 56 53 31 52 
